NAME: Golden_9
TYPE: CVRP
COMMENT: 585.43
DIMENSION: 256
CAPACITY: 1000
VEHICLES: 14
EDGE_WEIGHT_TYPE: FUNCTION
EDGE_WEIGHT_FORMAT: EUC_2D
NODE_COORD_TYPE: TWOD_COORDS
NODE_COORD_SECTION
1 -1.00000 -14.00000
2 1.00000 -14.00000
3 -2.00000 -13.00000
4 0.00000 -13.00000
5 2.00000 -13.00000
6 -3.00000 -12.00000
7 -1.00000 -12.00000
8 1.00000 -12.00000
9 3.00000 -12.00000
10 -4.00000 -11.00000
11 -2.00000 -11.00000
12 0.00000 -11.00000
13 2.00000 -11.00000
14 4.00000 -11.00000
15 -5.00000 -10.00000
16 -3.00000 -10.00000
17 -1.00000 -10.00000
18 1.00000 -10.00000
19 3.00000 -10.00000
20 5.00000 -10.00000
21 -6.00000 -9.00000
22 -4.00000 -9.00000
23 -2.00000 -9.00000
24 0.00000 -9.00000
25 2.00000 -9.00000
26 4.00000 -9.00000
27 6.00000 -9.00000
28 -7.00000 -8.00000
29 -5.00000 -8.00000
30 -3.00000 -8.00000
31 -1.00000 -8.00000
32 1.00000 -8.00000
33 3.00000 -8.00000
34 5.00000 -8.00000
35 7.00000 -8.00000
36 -8.00000 -7.00000
37 -6.00000 -7.00000
38 -4.00000 -7.00000
39 -2.00000 -7.00000
40 0.00000 -7.00000
41 2.00000 -7.00000
42 4.00000 -7.00000
43 6.00000 -7.00000
44 8.00000 -7.00000
45 -9.00000 -6.00000
46 -7.00000 -6.00000
47 -5.00000 -6.00000
48 -3.00000 -6.00000
49 -1.00000 -6.00000
50 1.00000 -6.00000
51 3.00000 -6.00000
52 5.00000 -6.00000
53 7.00000 -6.00000
54 9.00000 -6.00000
55 -10.00000 -5.00000
56 -8.00000 -5.00000
57 -6.00000 -5.00000
58 -4.00000 -5.00000
59 -2.00000 -5.00000
60 0.00000 -5.00000
61 2.00000 -5.00000
62 4.00000 -5.00000
63 6.00000 -5.00000
64 8.00000 -5.00000
65 10.00000 -5.00000
66 -11.00000 -4.00000
67 -9.00000 -4.00000
68 -7.00000 -4.00000
69 -5.00000 -4.00000
70 -3.00000 -4.00000
71 -1.00000 -4.00000
72 1.00000 -4.00000
73 3.00000 -4.00000
74 5.00000 -4.00000
75 7.00000 -4.00000
76 9.00000 -4.00000
77 11.00000 -4.00000
78 -12.00000 -3.00000
79 -10.00000 -3.00000
80 -8.00000 -3.00000
81 -6.00000 -3.00000
82 -4.00000 -3.00000
83 -2.00000 -3.00000
84 0.00000 -3.00000
85 2.00000 -3.00000
86 4.00000 -3.00000
87 6.00000 -3.00000
88 8.00000 -3.00000
89 10.00000 -3.00000
90 12.00000 -3.00000
91 -13.00000 -2.00000
92 -11.00000 -2.00000
93 -9.00000 -2.00000
94 -7.00000 -2.00000
95 -5.00000 -2.00000
96 -3.00000 -2.00000
97 -1.00000 -2.00000
98 1.00000 -2.00000
99 3.00000 -2.00000
100 5.00000 -2.00000
101 7.00000 -2.00000
102 9.00000 -2.00000
103 11.00000 -2.00000
104 13.00000 -2.00000
105 -14.00000 -1.00000
106 -12.00000 -1.00000
107 -10.00000 -1.00000
108 -8.00000 -1.00000
109 -6.00000 -1.00000
110 -4.00000 -1.00000
111 -2.00000 -1.00000
112 0.00000 -1.00000
113 2.00000 -1.00000
114 4.00000 -1.00000
115 6.00000 -1.00000
116 8.00000 -1.00000
117 10.00000 -1.00000
118 12.00000 -1.00000
119 14.00000 -1.00000
120 -15.00000 0.00000
121 -13.00000 0.00000
122 -11.00000 0.00000
123 -9.00000 0.00000
124 -7.00000 0.00000
125 -5.00000 0.00000
126 -3.00000 0.00000
127 -1.00000 0.00000
128 1.00000 0.00000
129 3.00000 0.00000
130 5.00000 0.00000
131 7.00000 0.00000
132 9.00000 0.00000
133 11.00000 0.00000
134 13.00000 0.00000
135 15.00000 0.00000
136 -14.00000 1.00000
137 -12.00000 1.00000
138 -10.00000 1.00000
139 -8.00000 1.00000
140 -6.00000 1.00000
141 -4.00000 1.00000
142 -2.00000 1.00000
143 0.00000 1.00000
144 2.00000 1.00000
145 4.00000 1.00000
146 6.00000 1.00000
147 8.00000 1.00000
148 10.00000 1.00000
149 12.00000 1.00000
150 14.00000 1.00000
151 -13.00000 2.00000
152 -11.00000 2.00000
153 -9.00000 2.00000
154 -7.00000 2.00000
155 -5.00000 2.00000
156 -3.00000 2.00000
157 -1.00000 2.00000
158 1.00000 2.00000
159 3.00000 2.00000
160 5.00000 2.00000
161 7.00000 2.00000
162 9.00000 2.00000
163 11.00000 2.00000
164 13.00000 2.00000
165 -12.00000 3.00000
166 -10.00000 3.00000
167 -8.00000 3.00000
168 -6.00000 3.00000
169 -4.00000 3.00000
170 -2.00000 3.00000
171 0.00000 3.00000
172 2.00000 3.00000
173 4.00000 3.00000
174 6.00000 3.00000
175 8.00000 3.00000
176 10.00000 3.00000
177 12.00000 3.00000
178 -11.00000 4.00000
179 -9.00000 4.00000
180 -7.00000 4.00000
181 -5.00000 4.00000
182 -3.00000 4.00000
183 -1.00000 4.00000
184 1.00000 4.00000
185 3.00000 4.00000
186 5.00000 4.00000
187 7.00000 4.00000
188 9.00000 4.00000
189 11.00000 4.00000
190 -10.00000 5.00000
191 -8.00000 5.00000
192 -6.00000 5.00000
193 -4.00000 5.00000
194 -2.00000 5.00000
195 0.00000 5.00000
196 2.00000 5.00000
197 4.00000 5.00000
198 6.00000 5.00000
199 8.00000 5.00000
200 10.00000 5.00000
201 -9.00000 6.00000
202 -7.00000 6.00000
203 -5.00000 6.00000
204 -3.00000 6.00000
205 -1.00000 6.00000
206 1.00000 6.00000
207 3.00000 6.00000
208 5.00000 6.00000
209 7.00000 6.00000
210 9.00000 6.00000
211 -8.00000 7.00000
212 -6.00000 7.00000
213 -4.00000 7.00000
214 -2.00000 7.00000
215 0.00000 7.00000
216 2.00000 7.00000
217 4.00000 7.00000
218 6.00000 7.00000
219 8.00000 7.00000
220 -7.00000 8.00000
221 -5.00000 8.00000
222 -3.00000 8.00000
223 -1.00000 8.00000
224 1.00000 8.00000
225 3.00000 8.00000
226 5.00000 8.00000
227 7.00000 8.00000
228 -6.00000 9.00000
229 -4.00000 9.00000
230 -2.00000 9.00000
231 0.00000 9.00000
232 2.00000 9.00000
233 4.00000 9.00000
234 6.00000 9.00000
235 -5.00000 10.00000
236 -3.00000 10.00000
237 -1.00000 10.00000
238 1.00000 10.00000
239 3.00000 10.00000
240 5.00000 10.00000
241 -4.00000 11.00000
242 -2.00000 11.00000
243 0.00000 11.00000
244 2.00000 11.00000
245 4.00000 11.00000
246 -3.00000 12.00000
247 -1.00000 12.00000
248 1.00000 12.00000
249 3.00000 12.00000
250 -2.00000 13.00000
251 0.00000 13.00000
252 2.00000 13.00000
253 -1.00000 14.00000
254 1.00000 14.00000
255 0.00000 15.00000
DEMAND_SECTION
1 300
2 300
3 180
4 300
5 180
6 128
7 180
8 180
9 128
10 100
11 128
12 180
13 128
14 100
15 81
16 100
17 128
18 128
19 100
20 81
21 69
22 81
23 100
24 128
25 100
26 81
27 69
28 60
29 69
30 81
31 100
32 100
33 81
34 69
35 60
36 52
37 60
38 69
39 81
40 100
41 81
42 69
43 60
44 52
45 47
46 52
47 60
48 69
49 81
50 81
51 69
52 60
53 52
54 47
55 42
56 47
57 52
58 60
59 69
60 81
61 69
62 60
63 52
64 47
65 42
66 39
67 42
68 47
69 52
70 60
71 69
72 69
73 60
74 52
75 47
76 42
77 39
78 36
79 39
80 42
81 47
82 52
83 60
84 69
85 60
86 52
87 47
88 42
89 39
90 36
91 33
92 36
93 39
94 42
95 47
96 52
97 60
98 60
99 52
100 47
101 42
102 39
103 36
104 33
105 31
106 33
107 36
108 39
109 42
110 47
111 52
112 60
113 52
114 47
115 42
116 39
117 36
118 33
119 31
120 29
121 31
122 33
123 36
124 39
125 42
126 47
127 52
128 52
129 47
130 42
131 39
132 36
133 33
134 31
135 29
136 29
137 31
138 33
139 36
140 39
141 42
142 47
143 52
144 47
145 42
146 39
147 36
148 33
149 31
150 29
151 29
152 31
153 33
154 36
155 39
156 42
157 47
158 47
159 42
160 39
161 36
162 33
163 31
164 29
165 29
166 31
167 33
168 36
169 39
170 42
171 47
172 42
173 39
174 36
175 33
176 31
177 29
178 29
179 31
180 33
181 36
182 39
183 42
184 42
185 39
186 36
187 33
188 31
189 29
190 29
191 31
192 33
193 36
194 39
195 42
196 39
197 36
198 33
199 31
200 29
201 29
202 31
203 33
204 36
205 39
206 39
207 36
208 33
209 31
210 29
211 29
212 31
213 33
214 36
215 39
216 36
217 33
218 31
219 29
220 29
221 31
222 33
223 36
224 36
225 33
226 31
227 29
228 29
229 31
230 33
231 36
232 33
233 31
234 29
235 29
236 31
237 33
238 33
239 31
240 29
241 29
242 31
243 33
244 31
245 29
246 29
247 31
248 31
249 29
250 29
251 31
252 29
253 29
254 29
255 29
DEPOT_SECTION
0.00000 -15.00000
-1
EOF
